c
c This is glucose-syrup 4.0 (glucose in many threads) --  based on MiniSAT (Many thanks to MiniSAT team)
c
c WARNING: for repeatability, setting FPU to use double precision
c ========================================[ Problem Statistics ]===========================================
c |                                                                                                       |
c |  Number of variables:          4328                                                                   |
c |  Number of clauses:          462645                                                                   |
c |  Parse time:                   0.18 s                                                                 |
c |                                                                                                       |
c |  Eliminated clauses:           0.00 Mb                                                                |
c |  Simplification time:          3.61 s                                                                 |
c |                                                                                                       |
c |  Automatic Adjustement of the number of solvers. MaxMemory=20000, MaxCores= 16.                       |
c |  One Solver is taking 57.67Mb... Let's take 16 solvers for this run (max 40% of the maxmemory).       |
c |  Generating clones                                                                                    |
c |  all clones generated. Memory = 508.27Mb.                                                             |
c ========================================================================================================|
c last restart ## conflicts  :  232 65 
c Thread 0 is 100% pure glucose! First thread to finish! (SAT answer).
c Total Memory so far : 1678.66Mb
c
c real time : 4.7177 s
c cpu time  : 10.9349 s
c
c
c
c |---------------------------------------- FINAL STATS --------------------------------------------------|
c
c |---------------|-----------------|------------|------------|------------|------------|------------|------------|------------|------------|------------|------------|------------|------------|------------|------------|------------|------------|
c | Threads       |      Total      |          0 |          1 |          2 |          3 |          4 |          5 |          6 |          7 |          8 |          9 |         10 |         11 |         12 |         13 |         14 |         15 |
c |---------------|-----------------|------------|------------|------------|------------|------------|------------|------------|------------|------------|------------|------------|------------|------------|------------|------------|------------|
c | Conflicts     |          122626 |       9136 |       7867 |       7838 |       7950 |       8154 |       6958 |       7502 |       7517 |       8109 |       7290 |       7202 |       7247 |       7845 |       7163 |       7281 |       7567 |
c | Decisions     |         2984901 |      69321 |     218503 |     210672 |     213424 |     166273 |     202416 |     219607 |     211922 |     140476 |     198364 |     192097 |     217493 |     148138 |     212128 |     186321 |     177746 |
c | Propagations  |         9398334 |     387532 |     718146 |     617580 |     667768 |     576163 |     574776 |     677350 |     618163 |     449413 |     568617 |     556435 |     643946 |     466652 |     601876 |     647705 |     626212 |
c | Avg_Trail     |                 |       3415 |       2937 |       2859 |       2798 |       2924 |       2984 |       3056 |       2906 |       2903 |       2911 |       2913 |       2944 |       2815 |       2921 |       2873 |       2833 |
c | Avg_DL        |                 |        347 |        145 |        134 |        126 |        111 |        152 |        142 |        141 |        114 |        137 |        138 |        149 |        131 |        139 |        116 |        114 |
c | Avg_Res       |                 |          0 |          0 |          0 |          0 |          0 |          0 |          0 |          0 |          0 |          0 |          0 |          0 |          0 |          0 |          0 |          0 |
c | Avg_Res_Seen  |                 |          0 |          0 |          0 |          0 |          0 |          0 |          0 |          0 |          0 |          0 |          0 |          0 |          0 |          0 |          0 |          0 |
c |---------------|-----------------|------------|------------|------------|------------|------------|------------|------------|------------|------------|------------|------------|------------|------------|------------|------------|------------|
c | Exported      |            7738 |       1183 |        494 |        390 |        439 |        737 |        346 |        310 |        324 |        645 |        398 |        373 |        337 |        533 |        360 |        388 |        481 |
c | Imported      |          113351 |       6059 |       7146 |       7170 |       7262 |       6993 |       7231 |       7248 |       7257 |       6997 |       7331 |       7183 |       7070 |       7029 |       7251 |       6957 |       7167 |
c | Good          |             150 |         10 |          7 |          9 |          8 |         10 |         10 |          9 |         10 |          9 |         10 |          9 |         10 |          9 |         10 |         10 |         10 |
c | Purge         |          113201 |       6049 |       7139 |       7161 |       7254 |       6983 |       7221 |       7239 |       7247 |       6988 |       7321 |       7174 |       7060 |       7020 |       7241 |       6947 |       7157 |
c | Promoted      |            2041 |         47 |        132 |        124 |        135 |        136 |        138 |        117 |        112 |        127 |        137 |        155 |        128 |        137 |        150 |        128 |        138 |
c | Remove_Imp    |             208 |          0 |          0 |          0 |          0 |          0 |        208 |          0 |          0 |          0 |          0 |          0 |          0 |          0 |          0 |          0 |          0 |
c | Blocked_Reuse |               0 |          0 |          0 |          0 |          0 |          0 |          0 |          0 |          0 |          0 |          0 |          0 |          0 |          0 |          0 |          0 |          0 |
c |---------------|-----------------|------------|------------|------------|------------|------------|------------|------------|------------|------------|------------|------------|------------|------------|------------|------------|------------|
c | Unaries       |                 |          0 |          0 |          0 |          0 |          1 |          0 |          0 |          0 |          1 |          0 |          0 |          0 |          1 |          0 |          1 |          0 |
c | Binaries      |                 |          0 |          3 |          1 |          2 |          0 |          0 |          1 |          0 |          1 |          0 |          1 |          0 |          1 |          0 |          0 |          0 |
c | Glues         |                 |          4 |         42 |         44 |         83 |         39 |          7 |         22 |         12 |         29 |         30 |         67 |         24 |         34 |         39 |         61 |         57 |
c |---------------|-----------------|------------|------------|------------|------------|------------|------------|------------|------------|------------|------------|------------|------------|------------|------------|------------|------------|
c | Orig_Seen     |             3 % |      17730 |      17442 |      16690 |      16568 |      17574 |      16312 |      17026 |      16320 |      17290 |      16157 |      16072 |      16604 |      16591 |      16091 |      15761 |      15768 |
c | Diff Orig seen|                 |      X     | -      288 | -     1040 | -     1162 | -      156 | -     1418 | -      704 | -     1410 | -      440 | -     1573 | -     1658 | -     1126 | -     1139 | -     1639 | -     1969 | -     1962 |
c | Hamming       |            20 % |      X     |        762 |        804 |        998 |        925 |       1031 |        958 |       1162 |        678 |        911 |        745 |        753 |        911 |        958 |        979 |        919 |
c |---------------|-----------------|------------|------------|------------|------------|------------|------------|------------|------------|------------|------------|------------|------------|------------|------------|------------|------------|

s SATISFIABLE
c
c This is glucose-syrup 4.0 (glucose in many threads) --  based on MiniSAT (Many thanks to MiniSAT team)
c
c WARNING: for repeatability, setting FPU to use double precision
c ========================================[ Problem Statistics ]===========================================
c |                                                                                                       |
c |  Number of variables:          4621                                                                   |
c |  Number of clauses:          600524                                                                   |
c |  Parse time:                   0.22 s                                                                 |
c |                                                                                                       |
c |  Eliminated clauses:           0.00 Mb                                                                |
c |  Simplification time:          5.62 s                                                                 |
c |                                                                                                       |
c |  Automatic Adjustement of the number of solvers. MaxMemory=20000, MaxCores= 16.                       |
c |  One Solver is taking 74.75Mb... Let's take 16 solvers for this run (max 40% of the maxmemory).       |
c |  Generating clones                                                                                    |
c |  all clones generated. Memory = 733.29Mb.                                                             |
c ========================================================================================================|
c last restart ## conflicts  :  155 49 
c Thread 10 is 100% pure glucose! First thread to finish! (SAT answer).
c Total Memory so far : 1950.25Mb
c
c real time : 7.27219 s
c cpu time  : 18.4111 s
c
c
c
c |---------------------------------------- FINAL STATS --------------------------------------------------|
c
c |---------------|-----------------|------------|------------|------------|------------|------------|------------|------------|------------|------------|------------|------------|------------|------------|------------|------------|------------|
c | Threads       |      Total      |          0 |          1 |          2 |          3 |          4 |          5 |          6 |          7 |          8 |          9 |         10 |         11 |         12 |         13 |         14 |         15 |
c |---------------|-----------------|------------|------------|------------|------------|------------|------------|------------|------------|------------|------------|------------|------------|------------|------------|------------|------------|
c | Conflicts     |          217933 |      13214 |      13580 |      14922 |      13672 |      14458 |      13912 |      13849 |      13278 |      13800 |      12774 |      12856 |      13125 |      14124 |      12941 |      13800 |      13628 |
c | Decisions     |         3023804 |     237675 |     143714 |     195849 |     178764 |     200103 |     203912 |     204198 |     184247 |     162925 |     201571 |     158706 |     176398 |     239249 |     208728 |     177327 |     150438 |
c | Propagations  |        11632657 |     886763 |     638748 |     733638 |     753325 |     683185 |     745235 |     733315 |     642623 |     641444 |     797621 |     822971 |     655130 |     873109 |     673887 |     689221 |     662442 |
c | Avg_Trail     |                 |       2950 |       3514 |       3347 |       3271 |       3183 |       3243 |       3215 |       3336 |       3154 |       3400 |       3344 |       3257 |       3108 |       3397 |       3284 |       3288 |
c | Avg_DL        |                 |        246 |        230 |        244 |        234 |        230 |        243 |        228 |        243 |        221 |        249 |        231 |        257 |        238 |        264 |        244 |        231 |
c | Avg_Res       |                 |          0 |          0 |          0 |          0 |          0 |          0 |          0 |          0 |          0 |          0 |          0 |          0 |          0 |          0 |          0 |          0 |
c | Avg_Res_Seen  |                 |          0 |          0 |          0 |          0 |          0 |          0 |          0 |          0 |          0 |          0 |          0 |          0 |          0 |          0 |          0 |          0 |
c |---------------|-----------------|------------|------------|------------|------------|------------|------------|------------|------------|------------|------------|------------|------------|------------|------------|------------|------------|
c | Exported      |           26946 |       1190 |       1835 |       1925 |       1738 |       1721 |       1758 |       1714 |       1509 |       1853 |       1613 |       1735 |       1535 |       1900 |       1341 |       1857 |       1722 |
c | Imported      |          391694 |      25503 |      24213 |      24326 |      25000 |      24896 |      23327 |      24005 |      24562 |      24796 |      25213 |      24745 |      24749 |      25034 |      25344 |      23198 |      22783 |
c | Good          |             135 |          9 |          9 |          8 |          9 |          7 |          7 |          7 |          9 |          9 |          9 |          8 |          9 |          9 |          9 |          9 |          8 |
c | Purge         |          391559 |      25494 |      24204 |      24318 |      24991 |      24889 |      23320 |      23998 |      24553 |      24787 |      25204 |      24737 |      24740 |      25025 |      25335 |      23189 |      22775 |
c | Promoted      |            7564 |        471 |        435 |        408 |        438 |        445 |        511 |        512 |        531 |        431 |        492 |        414 |        485 |        439 |        488 |        535 |        529 |
c | Remove_Imp    |          102053 |       1638 |          0 |      10969 |          0 |      12665 |      13306 |      13979 |          0 |      14788 |       1874 |       1484 |       2574 |      13619 |       1513 |      13148 |        496 |
c | Blocked_Reuse |               0 |          0 |          0 |          0 |          0 |          0 |          0 |          0 |          0 |          0 |          0 |          0 |          0 |          0 |          0 |          0 |          0 |
c |---------------|-----------------|------------|------------|------------|------------|------------|------------|------------|------------|------------|------------|------------|------------|------------|------------|------------|------------|
c | Unaries       |                 |          0 |          0 |          0 |          0 |          0 |          0 |          0 |          0 |          0 |          0 |          0 |          1 |          0 |          0 |          0 |          1 |
c | Binaries      |                 |          0 |          0 |          1 |          0 |          2 |          2 |          2 |          0 |          0 |          0 |          1 |          0 |          0 |          0 |          0 |          1 |
c | Glues         |                 |         54 |         82 |         60 |         94 |         98 |         86 |         92 |         45 |         74 |         39 |        131 |         64 |         71 |         29 |         74 |         70 |
c |---------------|-----------------|------------|------------|------------|------------|------------|------------|------------|------------|------------|------------|------------|------------|------------|------------|------------|------------|
c | Orig_Seen     |             4 % |      27648 |      29808 |      32956 |      28125 |      29220 |      29796 |      28983 |      30606 |      27509 |      28270 |      27736 |      28667 |      28232 |      29581 |      29862 |      29738 |
c | Diff Orig seen|                 | -       88 |       2072 |       5220 |        389 |       1484 |       2060 |       1247 |       2870 | -      227 |        534 |      X     |        931 |        496 |       1845 |       2126 |       2002 |
c | Hamming       |            23 % |       1074 |       1025 |        881 |       1011 |        948 |       1131 |       1072 |       1236 |       1156 |       1136 |      X     |       1012 |       1201 |       1069 |       1037 |       1079 |
c |---------------|-----------------|------------|------------|------------|------------|------------|------------|------------|------------|------------|------------|------------|------------|------------|------------|------------|------------|

s SATISFIABLE
c
c This is glucose-syrup 4.0 (glucose in many threads) --  based on MiniSAT (Many thanks to MiniSAT team)
c
c WARNING: for repeatability, setting FPU to use double precision
c ========================================[ Problem Statistics ]===========================================
c |                                                                                                       |
c |  Number of variables:           356                                                                   |
c |  Number of clauses:           16895                                                                   |
c |  Parse time:                   0.01 s                                                                 |
c |                                                                                                       |
c |  Eliminated clauses:           0.00 Mb                                                                |
c |  Simplification time:          0.07 s                                                                 |
c |                                                                                                       |
c |  Automatic Adjustement of the number of solvers. MaxMemory=20000, MaxCores= 16.                       |
c |  One Solver is taking 14.89Mb... Let's take 16 solvers for this run (max 40% of the maxmemory).       |
c |  Generating clones                                                                                    |
c |  all clones generated. Memory =  40.76Mb.                                                             |
c ========================================================================================================|
c Thread 9 is 100% pure glucose! First thread to finish! (UNSAT answer).
c Total Memory so far : 1115.94Mb
c
c real time : 1.41743 s
c cpu time  : 19.212 s
c
c
c
c |---------------------------------------- FINAL STATS --------------------------------------------------|
c
c |---------------|-----------------|------------|------------|------------|------------|------------|------------|------------|------------|------------|------------|------------|------------|------------|------------|------------|------------|
c | Threads       |      Total      |          0 |          1 |          2 |          3 |          4 |          5 |          6 |          7 |          8 |          9 |         10 |         11 |         12 |         13 |         14 |         15 |
c |---------------|-----------------|------------|------------|------------|------------|------------|------------|------------|------------|------------|------------|------------|------------|------------|------------|------------|------------|
c | Conflicts     |          777395 |      49233 |      50243 |      46282 |      49085 |      47718 |      47289 |      48589 |      48569 |      47045 |      47570 |      49247 |      49687 |      50275 |      50344 |      48762 |      47457 |
c | Decisions     |         1276711 |      82245 |      82890 |      76785 |      78572 |      76430 |      79774 |      80922 |      79328 |      75292 |      78263 |      83935 |      80044 |      84198 |      81388 |      79493 |      77152 |
c | Propagations  |        13978301 |     873170 |     890562 |     817594 |     884480 |     869994 |     838924 |     882101 |     889276 |     852678 |     854476 |     870679 |     927349 |     885260 |     900833 |     889180 |     851745 |
c | Avg_Trail     |                 |        223 |        224 |        218 |        220 |        221 |        222 |        226 |        218 |        218 |        217 |        225 |        219 |        221 |        215 |        222 |        222 |
c | Avg_DL        |                 |         22 |         23 |         22 |         21 |         21 |         23 |         23 |         23 |         21 |         22 |         24 |         22 |         22 |         21 |         23 |         22 |
c | Avg_Res       |                 |          0 |          0 |          0 |          0 |          0 |          0 |          0 |          0 |          0 |          0 |          0 |          0 |          0 |          0 |          0 |          0 |
c | Avg_Res_Seen  |                 |          0 |          0 |          0 |          0 |          0 |          0 |          0 |          0 |          0 |          0 |          0 |          0 |          0 |          0 |          0 |          0 |
c |---------------|-----------------|------------|------------|------------|------------|------------|------------|------------|------------|------------|------------|------------|------------|------------|------------|------------|------------|
c | Exported      |          149776 |       9555 |       9699 |       8558 |       9640 |      10153 |       8935 |       9445 |       9029 |       9279 |       8351 |       8616 |      10484 |       9001 |       9849 |      10050 |       9132 |
c | Imported      |         2190092 |     139898 |     137863 |     135965 |     133945 |     137875 |     138900 |     137477 |     135771 |     138650 |     141425 |     131824 |     129203 |     139404 |     135772 |     139618 |     136502 |
c | Good          |            2492 |        179 |        158 |        140 |        144 |        159 |        158 |        147 |        139 |        159 |        205 |        134 |        127 |        166 |        137 |        189 |        151 |
c | Purge         |         2187600 |     139719 |     137705 |     135825 |     133801 |     137716 |     138742 |     137330 |     135632 |     138491 |     141220 |     131690 |     129076 |     139238 |     135635 |     139429 |     136351 |
c | Promoted      |          115354 |       7073 |       6879 |       7780 |       6750 |       6339 |       7479 |       7595 |       7350 |       7785 |       7930 |       7219 |       7050 |       7284 |       6949 |       6701 |       7191 |
c | Remove_Imp    |         1404577 |      90382 |      85143 |      90556 |      87914 |      94004 |      85133 |      90266 |      87924 |      87481 |      86055 |      84984 |      89376 |      86599 |      85505 |      82887 |      90368 |
c | Blocked_Reuse |               0 |          0 |          0 |          0 |          0 |          0 |          0 |          0 |          0 |          0 |          0 |          0 |          0 |          0 |          0 |          0 |          0 |
c |---------------|-----------------|------------|------------|------------|------------|------------|------------|------------|------------|------------|------------|------------|------------|------------|------------|------------|------------|
c | Unaries       |                 |          4 |          1 |          2 |          0 |          1 |          1 |          2 |          2 |          1 |          5 |          0 |          1 |          0 |          2 |          6 |          2 |
c | Binaries      |                 |         29 |          9 |         14 |          4 |         11 |         13 |         15 |         16 |         11 |         14 |          4 |         15 |          8 |         20 |         29 |          7 |
c | Glues         |                 |        241 |        213 |        262 |        162 |        213 |        196 |        191 |        201 |        193 |        262 |        189 |        181 |        192 |        220 |        165 |        273 |
c |---------------|-----------------|------------|------------|------------|------------|------------|------------|------------|------------|------------|------------|------------|------------|------------|------------|------------|------------|
c | Orig_Seen     |            62 % |      11013 |      10981 |      10382 |      10378 |      10018 |      10780 |      10935 |      10442 |      10059 |      10502 |      10980 |      10191 |      10480 |       9878 |      10392 |      10683 |
c | Diff Orig seen|                 |        511 |        479 | -      120 | -      124 | -      484 |        278 |        433 | -       60 | -      443 |      X     |        478 | -      311 | -       22 | -      624 | -      110 |        181 |
c | Hamming       |            20 % |         77 |         57 |         67 |         65 |         72 |         76 |         77 |         81 |         84 |      X     |         89 |         82 |         64 |         80 |         81 |         72 |
c |---------------|-----------------|------------|------------|------------|------------|------------|------------|------------|------------|------------|------------|------------|------------|------------|------------|------------|------------|

s UNSATISFIABLE
c
c This is glucose-syrup 4.0 (glucose in many threads) --  based on MiniSAT (Many thanks to MiniSAT team)
c
c WARNING: for repeatability, setting FPU to use double precision
c ========================================[ Problem Statistics ]===========================================
c |                                                                                                       |
c |  Number of variables:           401                                                                   |
c |  Number of clauses:           22972                                                                   |
c |  Parse time:                   0.01 s                                                                 |
c |                                                                                                       |
c |  Eliminated clauses:           0.00 Mb                                                                |
c |  Simplification time:          0.11 s                                                                 |
c |                                                                                                       |
c |  Automatic Adjustement of the number of solvers. MaxMemory=20000, MaxCores= 16.                       |
c |  One Solver is taking 15.76Mb... Let's take 16 solvers for this run (max 40% of the maxmemory).       |
c |  Generating clones                                                                                    |
c |  all clones generated. Memory =  49.05Mb.                                                             |
c ========================================================================================================|
c
c Try to adapt solver strategies
c 
c Nothing extreme in this problem, continue with glucose default strategies.
c
c
c Try to adapt solver strategies
c 
c Nothing extreme in this problem, continue with glucose default strategies.
c
c
c Try to adapt solver strategies
c 
c Nothing extreme in this problem, continue with glucose default strategies.
c
c
c Try to adapt solver strategies
c 
c Nothing extreme in this problem, continue with glucose default strategies.
c
c
c Try to adapt solver strategies
c 
c Nothing extreme in this problem, continue with glucose default strategies.
c
c
c Try to adapt solver strategies
c 
c Nothing extreme in this problem, continue with glucose default strategies.
c
c
c Try to adapt solver strategies
c 
c Nothing extreme in this problem, continue with glucose default strategies.
c
c
c Try to adapt solver strategies
c 
c Nothing extreme in this problem, continue with glucose default strategies.
c
c
c |-------------------------------------------------------------------------------------------------------|
c | id | starts | decisions  |  confls    |  Init T  |  learnts | exported | imported | promoted |    %   | 
c |-------------------------------------------------------------------------------------------------------|
c |  0 |    317 |     231439 |     141179 |    16357 |    25631 |    20973 |   304050 |    16424 | 27.931 |
c |  1 |    309 |     226429 |     137354 |    16633 |    22258 |    20656 |   298565 |    17566 | 27.931 |
c |  2 |    345 |     231929 |     138138 |    16912 |    23140 |    20960 |   296802 |    17385 | 27.931 |
c |  3 |    356 |     229565 |     137001 |    16607 |    21802 |    21347 |   299230 |    16415 | 27.931 |
c |  4 |    224 |     220819 |     134088 |    16541 |    38594 |    21846 |   301499 |    16250 | 27.931 |
c |  5 |    363 |     227048 |     134871 |    16587 |    41338 |    19986 |   304774 |    16927 | 27.931 |
c |  6 |    232 |     235993 |     144788 |    16695 |    28364 |    22278 |   296179 |    15976 | 27.933 |
c |  7 |    349 |     218450 |     129930 |    16559 |    35948 |    19637 |   305240 |    16835 | 27.935 |
c |  8 |    366 |     226380 |     134100 |    16453 |    39781 |    19973 |   304748 |    17233 | 27.933 |
c |  9 |    277 |     218600 |     134157 |    16201 |    30463 |    19845 |   305148 |    15490 | 27.931 |
c | 10 |    326 |     216838 |     132315 |    16217 |    37148 |    17402 |   306547 |    16733 | 27.931 |
c | 11 |    364 |     218735 |     129175 |    16476 |    36342 |    19071 |   305882 |    16382 | 27.933 |
c | 12 |    237 |     226112 |     140188 |    16383 |    24826 |    21304 |   302752 |    14890 | 27.933 |
c | 13 |    390 |     225337 |     134759 |    16296 |    41160 |    19773 |   297417 |    17794 | 27.931 |
c | 14 |    366 |     220624 |     130989 |    16107 |    38030 |    19789 |   304935 |    16856 | 27.933 |
c | 15 |    374 |     227787 |     137000 |    16463 |    21241 |    20197 |   304229 |    17847 | 27.931 |
c 
c synthesis     2170034 conflicts    45720918 propagations    29224 conflicts/sec   615731 propagations/sec
c Total Memory so far : 1141.86Mb
c Thread 11 is 100% pure glucose! First thread to finish! (UNSAT answer).
c Total Memory so far : 1152.50Mb
c
c real time : 7.66237 s
c cpu time  : 117.034 s
c
c
c
c |---------------------------------------- FINAL STATS --------------------------------------------------|
c
c |---------------|-----------------|------------|------------|------------|------------|------------|------------|------------|------------|------------|------------|------------|------------|------------|------------|------------|------------|
c | Threads       |      Total      |          0 |          1 |          2 |          3 |          4 |          5 |          6 |          7 |          8 |          9 |         10 |         11 |         12 |         13 |         14 |         15 |
c |---------------|-----------------|------------|------------|------------|------------|------------|------------|------------|------------|------------|------------|------------|------------|------------|------------|------------|------------|
c | Conflicts     |         2950226 |     187637 |     192702 |     189108 |     189289 |     180347 |     187352 |     192874 |     176153 |     182120 |     183516 |     182373 |     177650 |     190699 |     180496 |     171563 |     186347 |
c | Decisions     |         4622952 |     293892 |     297256 |     296888 |     297887 |     280644 |     296196 |     297068 |     279893 |     288895 |     285395 |     283215 |     281974 |     292360 |     285810 |     272773 |     292806 |
c | Propagations  |        67824418 |    4200673 |    4487312 |    4362522 |    4391544 |    4151673 |    4413613 |    4538809 |    4028479 |    4097013 |    4309873 |    4213954 |    4038573 |    4351042 |    4120774 |    3856991 |    4261573 |
c | Avg_Trail     |                 |        249 |        245 |        244 |        243 |        244 |        244 |        243 |        244 |        242 |        243 |        241 |        240 |        245 |        244 |        242 |        248 |
c | Avg_DL        |                 |         22 |         23 |         23 |         23 |         23 |         23 |         23 |         22 |         22 |         23 |         21 |         23 |         23 |         23 |         22 |         23 |
c | Avg_Res       |                 |          0 |          0 |          0 |          0 |          0 |          0 |          0 |          0 |          0 |          0 |          0 |          0 |          0 |          0 |          0 |          0 |
c | Avg_Res_Seen  |                 |          0 |          0 |          0 |          0 |          0 |          0 |          0 |          0 |          0 |          0 |          0 |          0 |          0 |          0 |          0 |          0 |
c |---------------|-----------------|------------|------------|------------|------------|------------|------------|------------|------------|------------|------------|------------|------------|------------|------------|------------|------------|
c | Exported      |          412691 |      25792 |      29249 |      26561 |      26448 |      26616 |      26116 |      27927 |      25324 |      25359 |      23998 |      23254 |      24614 |      26736 |      24791 |      24604 |      25302 |
c | Imported      |         6055002 |     374828 |     341706 |     373657 |     382510 |     369984 |     386474 |     383535 |     379321 |     379096 |     387032 |     389360 |     388077 |     379000 |     387840 |     367786 |     384796 |
c | Good          |            3092 |        188 |        132 |        186 |        194 |        180 |        232 |        208 |        173 |        168 |        196 |        222 |        232 |        187 |        236 |        160 |        198 |
c | Purge         |         6051910 |     374640 |     341574 |     373471 |     382316 |     369804 |     386242 |     383327 |     379148 |     378928 |     386836 |     389138 |     387845 |     378813 |     387604 |     367626 |     384598 |
c | Promoted      |          359582 |      21298 |      21680 |      23004 |      21802 |      22304 |      23191 |      22786 |      22737 |      22211 |      21476 |      23653 |      22416 |      20720 |      24217 |      22166 |      23921 |
c | Remove_Imp    |         4658325 |     285648 |     282794 |     276321 |     287435 |     295541 |     291103 |     265842 |     305808 |     296921 |     302109 |     302200 |     304453 |     276082 |     295067 |     308216 |     282785 |
c | Blocked_Reuse |               0 |          0 |          0 |          0 |          0 |          0 |          0 |          0 |          0 |          0 |          0 |          0 |          0 |          0 |          0 |          0 |          0 |
c |---------------|-----------------|------------|------------|------------|------------|------------|------------|------------|------------|------------|------------|------------|------------|------------|------------|------------|------------|
c | Unaries       |                 |          2 |          0 |          0 |          0 |          0 |          1 |          4 |          2 |          2 |          3 |          4 |          6 |          0 |          5 |          1 |          0 |
c | Binaries      |                 |          4 |          5 |          5 |          9 |         10 |         25 |         18 |         22 |         27 |         25 |         35 |         33 |          9 |         23 |          8 |          7 |
c | Glues         |                 |        331 |        303 |        347 |        350 |        329 |        369 |        308 |        366 |        447 |        364 |        368 |        414 |        359 |        402 |        377 |        304 |
c |---------------|-----------------|------------|------------|------------|------------|------------|------------|------------|------------|------------|------------|------------|------------|------------|------------|------------|------------|
c | Orig_Seen     |            72 % |      16458 |      16740 |      16983 |      16710 |      16621 |      16708 |      16786 |      16691 |      16535 |      16360 |      16363 |      16595 |      16486 |      16402 |      16205 |      16561 |
c | Diff Orig seen|                 | -      137 |        145 |        388 |        115 |         26 |        113 |        191 |         96 | -       60 | -      235 | -      232 |      X     | -      109 | -      193 | -      390 | -       34 |
c | Hamming       |            17 % |         64 |         67 |         91 |         80 |         70 |         43 |         82 |         79 |         75 |         84 |         72 |      X     |         65 |         74 |         78 |         64 |
c |---------------|-----------------|------------|------------|------------|------------|------------|------------|------------|------------|------------|------------|------------|------------|------------|------------|------------|------------|

s UNSATISFIABLE
